%grid with black boxes
board= [                 
  _, 0, _, 0, _, _, _,
  _, _, 0, _, _, _, _,
  _, 0, _, _, 0, _, 0,
  0, _, _, 0, _, _, 0,
  0, _, _, _, 0, _, _,
  ];

%segments of words
segments = [|   
  1,  8, 15,  0,  0| %1v
  5,  6,  7,  0,  0| %2h
  5, 12,  0,  0,  0| %2v
  8,  9,  0,  0,  0| %3h
  11, 12, 13, 14, 0| %4h
  11, 18,  0, 0,  0| %4v
  17, 18,  0, 0,  0| %5h
  17, 24, 31, 0,  0| %5v
  6,  13, 20, 27,34| %6v
  23, 24,  0,  0, 0| %7h
  23, 30,  0,  0, 0| %7v
  26, 27,  0,  0, 0| %8h
  30, 31, 32,  0, 0| %9h
  34, 35,  0,  0, 0| %10h
  |];
%inputs
rows=5; 
columns=7;
r=1;
s=29; 
max_length_seg=5; %length of the longest segment of numbers
solutions_vector = [21, 8, 14, 29, 20, 22, 25, 26, 21, 26, 27, 22, 28, 2];
sol_card=14;